(set-logic QF_BV)
(declare-fun _substvar_297_ () (_ BitVec 1))
(declare-fun _substvar_324_ () (_ BitVec 15))
(declare-fun _substvar_310_ () (_ BitVec 15))
(declare-fun _substvar_274_ () (_ BitVec 15))
(declare-fun _substvar_361_ () Bool)
(declare-fun _substvar_308_ () (_ BitVec 15))
(declare-fun _substvar_79_ () (_ BitVec 15))
(assert (and true true true true true true true true true true true true true true true true true true true true true true true true true true true true true true true true true true true true true true true true true true true (ite _substvar_361_ (= _substvar_324_ (_ bv0 15)) (= _substvar_324_ (concat (_ bv0 14) _substvar_297_))) (= _substvar_310_ (concat ((_ extract 13 0) _substvar_324_) (bvxor ((_ extract 14 14) _substvar_324_) ((_ extract 13 13) _substvar_324_)))) (= _substvar_274_ (concat ((_ extract 13 0) _substvar_310_) (bvxor ((_ extract 14 14) _substvar_310_) (_ bv0 1)))) (= _substvar_308_ (concat ((_ extract 13 0) _substvar_274_) (_ bv0 1))) (= _substvar_79_ (concat (_ bv0 14) (bvxor ((_ extract 14 14) _substvar_308_) ((_ extract 13 13) _substvar_308_)))) true true true true true true true true true true true true true true true true true true true true true true true true true true true true true true true true true true true true true true true true true true true true true true true true true true true true true true true true true true true true true true true true true true true true true true true true true true true true true true true true true true true true true true true true true true true true true true true true true true true true true true true true true true true true true true true true true true true true true true true true true true true true true true true true true true true true true true true true true true true true true true true true true true true true true true true true true true (= (= _substvar_79_ (_ bv0 15)) false)))
(check-sat)
(exit)
